100
150
104
102
100
99
97
96
95
94
94
93
92
92
91
90
90
88
88
87
87
86
86
85
84
83
83
83
82
81
81
80
78
77
77
75
73
72
72
71
70
68
67
66
66
64
64
63
62
60
58
57
55
55
55
54
54
52
51
49
48
48
47
47
46
43
42
41
40
38
37
36
36
35
35
34
34
33
33
33
32
30
30
30
29
28
26
25
25
25
25
24
22
22
22
21
21
21
19
19
18
16
